p ocr 1072 1037 2687 4
1
1073
2
1074
1075
1076
3
4
5
6
1077
7
8
1078
9
1079
10
1080
1081
11
12
1082
13
14
15
16
17
18
1083
19
1084
1085
20
21
22
23
1086
24
1087
1088
25
1089
26
1090
27
28
1091
1092
29
30
1093
1094
31
32
33
34
1095
35
36
1096
37
1097
38
1098
1099
1100
39
40
41
42
1101
1102
43
44
1103
1104
1105
1106
1107
1108
1109
1110
1111
45
1112
46
47
48
49
50
1113
1114
1115
51
1116
1117
1118
52
1119
1120
1121
53
1122
54
1123
1124
1125
1126
55
1127
1128
1129
56
57
1130
58
1131
59
60
61
1132
62
1133
1134
63
1135
1136
64
65
1137
66
67
68
1138
69
1139
70
71
72
1140
73
1141
74
75
1142
76
77
1143
1144
1145
78
79
1146
1147
1148
80
1149
1150
81
82
83
1151
1152
1153
1154
84
1155
1156
85
86
1157
1158
1159
1160
87
1161
88
1162
1163
1164
89
90
1165
1166
1167
91
1168
1169
1170
1171
1172
1173
92
93
94
95
96
97
1174
98
1175
99
1176
1177
1178
100
1179
1180
1181
1182
101
1183
1184
102
103
104
105
1185
106
107
1186
108
1187
109
110
111
1188
112
1189
113
114
1190
115
1191
116
1192
117
118
119
120
1193
121
1194
122
1195
123
124
1196
125
126
1197
127
128
1198
129
130
1199
1200
131
132
133
1201
134
135
136
137
138
139
140
1202
1203
141
1204
142
1205
143
1206
144
145
1207
146
1208
147
1209
1210
1211
148
1212
1213
149
1214
150
151
1215
152
153
154
155
156
157
1216
158
159
160
161
1217
1218
162
163
164
165
1219
1220
1221
166
1222
1223
1224
1225
167
168
1226
1227
1228
169
170
1229
1230
1231
171
1232
172
173
1233
174
175
1234
1235
1236
1237
176
1238
177
178
1239
1240
1241
179
1242
180
181
1243
1244
1245
182
183
1246
1247
1248
184
185
186
187
1249
188
1250
189
190
191
192
1251
1252
193
1253
1254
1255
1256
1257
1258
194
195
196
1259
1260
197
1261
1262
198
199
200
201
202
1263
203
204
1264
205
1265
206
1266
207
1267
208
1268
1269
209
210
1270
211
212
1271
1272
1273
213
214
1274
215
1275
216
217
1276
218
1277
219
1278
1279
1280
1281
1282
220
1283
1284
221
1285
1286
222
1287
223
1288
1289
224
225
1290
226
1291
1292
1293
227
1294
228
229
230
231
1295
1296
1297
232
233
1298
234
235
1299
1300
236
237
238
1301
1302
239
1303
240
1304
1305
1306
241
1307
1308
242
243
1309
1310
244
1311
245
246
247
248
1312
249
1313
1314
250
251
1315
1316
252
1317
1318
1319
253
254
255
256
1320
1321
257
258
1322
1323
1324
259
260
1325
261
262
1326
1327
1328
263
1329
264
265
1330
266
267
268
1331
1332
1333
269
270
271
1334
1335
1336
272
1337
273
274
1338
275
1339
1340
276
277
278
279
280
1341
1342
1343
1344
1345
1346
1347
1348
1349
281
1350
282
1351
283
284
285
1352
1353
286
287
1354
1355
1356
1357
1358
1359
288
289
1360
290
1361
291
1362
1363
292
293
1364
294
295
1365
1366
1367
296
297
298
1368
299
1369
300
301
1370
1371
302
303
304
305
306
307
1372
308
309
310
311
1373
1374
312
313
1375
314
1376
1377
1378
1379
315
316
317
318
319
1380
320
1381
321
1382
322
323
1383
324
1384
325
326
1385
327
328
329
330
331
1386
332
333
334
335
336
1387
1388
337
338
339
1389
1390
340
341
342
343
1391
344
345
1392
1393
1394
1395
346
347
348
1396
349
350
1397
351
1398
1399
352
353
1400
1401
354
355
1402
356
357
358
359
1403
360
361
362
1404
363
1405
364
1406
365
366
1407
367
1408
368
369
370
371
372
1409
373
374
1410
375
376
377
1411
378
379
380
1412
381
1413
1414
382
1415
383
1416
384
1417
1418
385
1419
1420
1421
386
387
388
389
390
1422
1423
391
1424
1425
1426
392
393
394
1427
1428
395
396
397
398
399
400
1429
1430
401
1431
402
1432
1433
1434
403
1435
404
1436
405
1437
1438
1439
1440
1441
1442
1443
1444
1445
1446
406
1447
1448
1449
407
408
1450
409
410
1451
1452
411
1453
412
1454
413
414
415
416
417
1455
418
419
1456
420
421
1457
1458
1459
1460
422
1461
1462
423
1463
424
425
1464
1465
426
1466
1467
427
428
429
430
1468
1469
431
432
1470
1471
433
434
435
1472
436
437
438
439
1473
440
1474
441
442
443
444
445
1475
1476
446
447
1477
1478
448
1479
449
450
451
452
1480
1481
1482
453
454
1483
1484
455
456
457
1485
1486
458
459
1487
460
1488
461
1489
462
463
464
1490
1491
1492
1493
465
1494
1495
1496
466
1497
1498
467
1499
1500
468
469
1501
470
471
472
473
474
1502
475
1503
476
477
478
1504
479
480
1505
1506
481
482
1507
1508
1509
1510
483
1511
1512
484
1513
1514
1515
485
1516
1517
486
487
488
489
490
1518
1519
1520
1521
1522
1523
491
1524
1525
1526
492
493
1527
494
495
496
1528
1529
1530
1531
1532
1533
497
1534
498
1535
1536
1537
499
1538
1539
1540
1541
500
1542
501
502
1543
503
1544
1545
1546
504
1547
505
1548
506
1549
507
1550
508
509
510
1551
1552
1553
511
1554
512
1555
513
514
515
516
1556
517
1557
1558
518
1559
1560
519
520
1561
1562
521
1563
522
523
1564
1565
524
1566
525
1567
526
1568
527
528
1569
1570
529
530
531
1571
532
533
1572
534
1573
535
536
1574
537
538
1575
539
540
1576
1577
1578
541
542
543
544
1579
1580
545
1581
546
547
1582
1583
1584
1585
1586
548
1587
549
550
1588
551
552
553
554
1589
555
556
557
1590
1591
1592
558
1593
1594
1595
559
560
1596
561
1597
562
563
564
1598
565
566
1599
567
1600
1601
1602
568
1603
1604
1605
1606
1607
569
1608
570
571
1609
572
1610
1611
1612
1613
573
574
575
576
577
578
579
1614
1615
580
1616
1617
1618
1619
581
582
1620
583
1621
584
1622
1623
1624
1625
585
586
1626
587
1627
588
1628
589
1629
590
1630
591
1631
592
1632
593
594
1633
595
1634
596
597
1635
1636
1637
598
1638
1639
599
1640
1641
600
1642
601
602
603
1643
604
605
1644
606
607
1645
608
1646
1647
1648
609
610
1649
611
1650
1651
1652
1653
612
1654
613
1655
614
615
1656
1657
1658
1659
1660
1661
1662
616
1663
1664
617
1665
1666
618
619
1667
620
621
622
623
624
1668
625
626
627
628
629
630
631
632
1669
633
634
1670
1671
1672
635
636
1673
637
1674
638
1675
1676
639
640
1677
1678
641
642
1679
643
1680
644
1681
645
1682
646
1683
1684
1685
1686
647
1687
648
649
650
651
652
653
654
1688
655
1689
656
1690
657
1691
658
1692
1693
1694
659
660
661
1695
662
1696
663
1697
1698
1699
1700
1701
664
1702
1703
665
666
667
668
669
670
1704
671
1705
1706
672
673
1707
1708
674
675
676
1709
1710
677
678
1711
679
680
1712
1713
681
682
1714
1715
1716
683
684
685
686
687
688
689
690
691
1717
692
693
694
695
1718
696
1719
697
1720
1721
698
1722
699
1723
1724
1725
700
1726
1727
701
1728
702
1729
1730
1731
1732
1733
703
704
705
706
707
1734
708
1735
709
710
711
1736
1737
712
713
714
715
1738
1739
716
717
718
1740
1741
1742
1743
719
1744
720
721
722
1745
723
1746
1747
724
725
1748
726
1749
727
1750
1751
1752
728
1753
1754
729
1755
730
731
732
733
1756
734
1757
1758
735
1759
736
737
1760
1761
1762
1763
738
1764
739
740
741
1765
742
1766
1767
1768
1769
743
1770
1771
744
1772
1773
1774
745
746
1775
1776
1777
747
1778
1779
748
749
750
1780
1781
751
752
1782
753
1783
1784
754
755
1785
756
1786
1787
757
1788
758
759
760
761
1789
762
763
1790
1791
1792
764
1793
765
1794
1795
1796
766
767
1797
768
769
770
771
1798
1799
1800
1801
1802
772
1803
1804
1805
773
774
1806
1807
775
776
777
1808
1809
778
1810
1811
1812
779
1813
1814
780
1815
781
782
1816
1817
1818
1819
1820
1821
1822
1823
783
1824
1825
784
1826
1827
785
1828
786
1829
1830
787
788
1831
789
1832
790
1833
1834
1835
791
1836
1837
792
793
794
795
796
797
1838
1839
1840
1841
798
799
800
801
1842
802
1843
803
804
1844
1845
1846
1847
1848
805
806
807
808
1849
1850
809
810
1851
811
1852
812
1853
1854
1855
1856
1857
1858
1859
813
1860
814
1861
815
816
1862
1863
817
1864
1865
818
1866
1867
819
1868
820
1869
821
1870
822
823
1871
1872
1873
1874
824
1875
1876
825
1877
1878
826
1879
827
828
1880
829
1881
1882
830
1883
831
832
1884
833
834
1885
835
1886
1887
1888
836
1889
837
1890
1891
838
839
1892
1893
840
1894
841
1895
1896
1897
842
843
844
845
846
1898
847
1899
1900
1901
848
849
850
851
852
1902
853
1903
854
855
1904
1905
1906
1907
856
1908
857
858
1909
1910
1911
859
1912
1913
1914
860
861
862
863
1915
1916
1917
1918
864
1919
865
866
867
1920
868
1921
869
1922
870
1923
871
1924
1925
1926
872
873
1927
874
1928
875
1929
1930
876
877
878
1931
1932
879
880
1933
1934
881
882
883
884
1935
1936
885
1937
1938
1939
886
1940
1941
1942
1943
887
888
889
1944
1945
890
891
1946
892
893
1947
894
895
1948
896
1949
1950
1951
897
1952
898
899
900
1953
1954
901
902
903
1955
1956
1957
1958
1959
904
905
1960
1961
906
1962
1963
1964
1965
1966
907
908
909
910
911
912
913
1967
1968
1969
1970
914
915
916
917
1971
918
1972
1973
919
920
1974
921
1975
1976
922
1977
1978
1979
923
1980
924
1981
925
926
927
928
1982
929
930
931
932
933
934
935
1983
936
1984
1985
1986
1987
937
1988
1989
1990
1991
938
1992
1993
1994
1995
1996
1997
1998
1999
939
2000
940
941
942
2001
2002
2003
943
2004
944
2005
945
946
947
948
2006
949
950
951
952
2007
2008
2009
2010
953
954
955
2011
2012
2013
956
2014
2015
2016
2017
2018
2019
2020
2021
2022
2023
2024
957
958
2025
959
2026
2027
2028
2029
960
961
2030
2031
962
2032
963
2033
2034
2035
964
965
966
2036
2037
2038
2039
2040
2041
967
2042
968
2043
969
970
971
2044
972
973
974
975
2045
2046
2047
976
2048
2049
977
2050
978
979
2051
980
981
2052
982
983
2053
2054
2055
2056
2057
2058
2059
2060
2061
2062
2063
984
985
2064
986
987
2065
988
2066
989
990
991
992
2067
2068
993
2069
994
2070
2071
995
2072
996
997
998
2073
2074
999
1000
2075
2076
2077
2078
2079
2080
1001
2081
1002
2082
2083
2084
1003
2085
1004
1005
2086
1006
1007
2087
1008
1009
2088
2089
1010
1011
1012
1013
1014
2090
1015
2091
2092
1016
1017
2093
2094
2095
2096
1018
2097
2098
1019
1020
1021
1022
2099
2100
2101
1023
2102
1024
2103
2104
1025
1026
1027
2105
2106
2107
2108
1028
2109
1029
1030
1031
1032
1033
1034
1035
1036
1037
1038
1039
1040
1041
1042
1043
1044
1045
1046
1047
1048
1049
1050
1051
1052
1053
1054
1055
1056
1057
1058
1059
1060
1061
1062
1063
1064
1065
1066
1067
1068
1069
1070
1071
1072
1 1073
1 1074
1 1075
2 1073
2 1074
2 1075
3 1074
3 1075
4 1074
5 1075
5 1077
6 1078
7 1079
8 1077
8 1078
8 1079
9 1078
9 1081
10 1078
10 1079
10 1080
10 1081
11 1079
11 1080
11 1081
11 1082
12 1081
12 1082
13 1082
15 1082
15 1083
16 1082
17 1083
18 1083
18 1085
19 1083
19 1084
19 1085
20 1083
20 1085
20 1086
22 1085
23 1085
23 1086
23 1087
23 1088
24 1086
24 1088
24 1089
25 1088
25 1089
26 1087
26 1088
26 1090
27 1090
27 1091
27 1092
28 1089
28 1090
28 1091
29 1091
29 1092
29 1093
30 1091
30 1092
30 1093
30 1094
31 1094
32 1093
32 1095
33 1093
33 1094
33 1095
34 1095
35 1095
35 1096
36 1095
36 1096
36 1097
37 1095
37 1096
37 1098
37 1099
38 1096
38 1097
38 1098
38 1099
39 1098
39 1099
40 1098
40 1101
40 1102
41 1099
42 1101
43 1101
43 1103
43 1104
44 1101
44 1102
44 1103
44 1105
45 1109
45 1110
45 1111
46 1110
46 1112
48 1113
49 1112
49 1115
50 1113
50 1114
51 1114
51 1115
51 1117
51 1118
52 1116
52 1117
52 1118
52 1119
52 1120
52 1121
53 1119
53 1120
53 1121
53 1122
53 1123
53 1124
54 1120
54 1122
54 1123
54 1126
55 1123
55 1124
55 1125
55 1126
55 1127
55 1128
55 1129
56 1127
56 1128
56 1130
56 1131
57 1127
57 1129
57 1130
57 1131
58 1130
58 1131
59 1130
59 1131
60 1132
61 1131
61 1132
61 1133
61 1134
62 1132
62 1133
62 1135
63 1133
63 1134
63 1135
63 1136
64 1134
64 1136
64 1137
65 1135
65 1137
66 1136
66 1137
66 1138
67 1137
67 1139
68 1137
68 1138
68 1139
69 1138
69 1139
70 1138
70 1139
70 1140
71 1139
71 1141
72 1139
72 1140
72 1141
73 1141
74 1141
74 1142
75 1140
75 1141
75 1142
75 1143
76 1141
76 1142
77 1143
77 1144
77 1145
78 1143
78 1144
78 1146
78 1147
79 1143
79 1145
79 1146
79 1147
80 1146
80 1148
80 1149
80 1150
81 1148
81 1150
82 1150
82 1151
82 1153
83 1149
83 1151
83 1154
84 1151
84 1152
84 1153
85 1154
85 1155
85 1156
85 1157
85 1158
86 1155
86 1157
86 1160
87 1157
87 1160
87 1161
87 1162
87 1163
88 1159
88 1161
88 1162
88 1164
89 1162
89 1163
89 1165
89 1166
90 1162
90 1165
90 1166
91 1165
91 1166
91 1167
91 1168
91 1169
91 1170
91 1171
92 1170
92 1171
93 1172
93 1173
95 1174
96 1174
97 1174
97 1175
98 1174
98 1176
98 1177
99 1174
99 1175
99 1177
99 1178
100 1176
100 1177
100 1178
100 1179
100 1180
100 1181
100 1182
101 1180
101 1181
101 1182
101 1183
101 1184
102 1182
102 1183
102 1184
102 1185
103 1184
105 1185
106 1185
106 1186
107 1185
107 1186
107 1187
108 1185
108 1186
108 1187
109 1187
109 1188
110 1186
110 1187
111 1187
111 1188
112 1188
112 1189
112 1190
113 1188
113 1191
114 1188
114 1189
114 1190
115 1190
115 1191
115 1192
116 1191
116 1192
117 1191
118 1191
118 1192
119 1193
119 1194
120 1192
120 1193
120 1194
121 1194
121 1195
122 1194
122 1195
122 1196
123 1194
123 1195
123 1196
124 1195
124 1197
125 1196
125 1197
126 1196
127 1196
127 1197
129 1197
129 1198
129 1199
129 1200
130 1199
130 1200
131 1199
131 1200
131 1201
132 1200
132 1201
133 1199
133 1201
134 1201
139 1202
140 1202
140 1203
140 1204
141 1202
141 1203
141 1205
142 1204
142 1205
142 1206
143 1205
143 1206
143 1207
144 1205
144 1206
144 1207
144 1208
145 1206
145 1208
146 1207
146 1209
147 1207
147 1208
147 1209
147 1210
147 1211
148 1210
148 1211
148 1214
149 1211
149 1213
149 1214
149 1215
150 1213
150 1214
150 1215
152 1214
152 1215
154 1215
154 1216
155 1216
156 1216
157 1216
158 1217
159 1216
159 1217
160 1216
160 1218
161 1216
161 1218
162 1217
162 1218
163 1217
163 1220
164 1218
164 1220
164 1221
165 1220
166 1220
166 1222
166 1223
166 1224
167 1223
167 1224
167 1226
167 1227
168 1223
168 1224
168 1227
168 1228
169 1226
169 1227
169 1230
169 1231
170 1227
170 1228
170 1230
170 1231
171 1230
171 1231
171 1232
172 1230
172 1231
172 1233
173 1232
173 1233
173 1234
174 1232
174 1233
174 1234
174 1235
174 1236
176 1234
176 1237
176 1239
177 1236
177 1238
177 1239
177 1240
178 1237
178 1241
179 1240
179 1241
179 1242
179 1243
180 1241
180 1242
180 1244
180 1245
181 1242
181 1243
182 1243
182 1246
183 1243
183 1244
183 1245
183 1247
183 1248
184 1247
184 1249
185 1247
185 1248
185 1249
186 1247
187 1249
187 1250
188 1249
189 1249
189 1250
190 1249
190 1250
190 1252
191 1251
192 1251
192 1253
193 1251
193 1252
193 1254
193 1255
193 1256
194 1256
194 1257
194 1259
194 1260
195 1259
196 1257
196 1260
197 1260
197 1261
197 1262
198 1260
198 1261
199 1263
200 1261
200 1263
201 1262
201 1263
202 1263
203 1263
203 1264
204 1263
204 1264
204 1265
205 1263
205 1264
205 1265
205 1266
206 1264
206 1265
206 1267
207 1265
207 1266
207 1267
207 1268
208 1266
208 1267
208 1268
209 1267
209 1269
209 1270
210 1268
210 1269
210 1270
211 1270
211 1273
212 1270
212 1271
212 1272
212 1273
213 1272
213 1274
214 1272
214 1273
214 1274
214 1275
215 1273
215 1274
215 1275
216 1274
216 1275
216 1276
217 1275
217 1276
218 1275
218 1277
218 1278
218 1279
219 1276
219 1277
219 1278
219 1280
220 1279
220 1280
220 1282
220 1283
220 1284
221 1282
221 1284
221 1285
221 1286
221 1287
222 1284
222 1289
223 1285
223 1286
223 1287
223 1289
224 1288
224 1289
224 1291
225 1288
225 1289
225 1290
225 1291
225 1292
226 1290
226 1292
227 1291
227 1293
227 1294
228 1294
229 1293
229 1294
229 1296
230 1296
231 1294
231 1295
231 1297
232 1295
232 1296
232 1298
233 1297
233 1298
233 1299
234 1297
234 1298
234 1300
235 1299
235 1300
236 1299
236 1300
236 1302
237 1300
237 1301
237 1302
238 1299
238 1302
239 1302
239 1304
239 1305
240 1301
240 1302
240 1304
240 1305
241 1305
241 1306
241 1307
241 1308
242 1306
242 1307
242 1310
243 1307
243 1309
243 1311
244 1309
244 1310
244 1311
245 1311
246 1310
246 1311
247 1311
247 1312
248 1312
248 1313
248 1314
249 1313
249 1314
250 1314
250 1316
251 1313
251 1314
251 1315
251 1316
252 1315
252 1316
252 1317
252 1318
252 1319
253 1317
253 1318
253 1320
254 1317
254 1320
255 1321
256 1319
256 1320
257 1320
257 1321
257 1323
258 1320
258 1321
258 1322
258 1324
259 1322
259 1323
259 1324
259 1325
260 1322
260 1325
260 1326
261 1327
261 1328
262 1326
263 1326
263 1327
263 1328
263 1329
263 1330
264 1327
264 1329
264 1330
265 1330
266 1329
266 1330
267 1330
267 1331
267 1332
267 1333
268 1330
268 1333
269 1331
269 1333
269 1334
269 1335
270 1333
271 1333
271 1335
271 1336
272 1334
272 1336
273 1335
273 1336
273 1337
273 1338
274 1337
274 1340
275 1338
275 1339
275 1340
276 1338
276 1339
276 1340
277 1340
278 1341
278 1342
279 1341
280 1341
281 1346
281 1347
281 1349
281 1350
281 1351
282 1349
282 1350
282 1351
283 1350
283 1351
283 1352
284 1351
284 1353
285 1352
285 1353
286 1352
286 1353
286 1354
286 1355
287 1352
287 1353
287 1354
287 1357
288 1359
288 1360
289 1357
289 1358
289 1359
289 1360
289 1361
290 1361
290 1363
291 1360
291 1361
291 1362
291 1363
292 1361
292 1363
292 1364
293 1362
293 1363
293 1364
293 1365
294 1364
294 1365
294 1367
295 1364
295 1366
297 1366
297 1367
297 1368
297 1369
298 1366
298 1367
298 1368
299 1368
299 1370
300 1368
300 1369
300 1370
300 1371
301 1368
301 1370
302 1370
302 1371
303 1370
304 1371
304 1372
305 1372
306 1372
307 1372
308 1372
308 1373
309 1372
309 1373
309 1374
310 1372
311 1374
312 1373
312 1374
312 1375
313 1374
313 1375
313 1377
314 1374
314 1375
314 1376
314 1377
314 1378
316 1377
316 1378
316 1379
316 1380
317 1378
317 1380
318 1380
319 1381
320 1380
320 1381
320 1382
321 1380
321 1381
321 1383
323 1381
323 1382
324 1382
324 1383
324 1384
324 1385
325 1383
325 1385
326 1383
326 1385
327 1384
328 1385
328 1386
329 1385
329 1386
330 1385
331 1386
332 1386
333 1387
335 1387
335 1388
336 1387
337 1387
337 1388
337 1389
337 1390
338 1387
338 1389
339 1388
339 1390
340 1390
341 1389
341 1390
341 1391
342 1390
342 1391
343 1391
344 1391
344 1393
344 1394
345 1391
345 1393
345 1394
346 1395
346 1396
347 1394
347 1395
347 1396
348 1395
348 1396
348 1397
349 1396
350 1396
350 1398
350 1399
351 1396
351 1397
351 1398
352 1398
352 1400
352 1401
353 1398
353 1399
353 1400
353 1401
354 1401
355 1400
355 1401
355 1402
356 1401
356 1402
356 1403
357 1402
357 1403
358 1403
359 1402
359 1403
360 1403
361 1403
361 1404
362 1403
362 1404
362 1405
363 1405
363 1406
364 1404
364 1405
364 1406
364 1407
365 1406
365 1407
365 1408
366 1406
366 1408
367 1407
367 1408
368 1408
369 1407
369 1408
369 1409
370 1409
371 1408
371 1409
372 1410
373 1410
374 1409
375 1410
375 1411
376 1410
376 1411
377 1410
377 1411
378 1411
378 1412
379 1411
379 1412
380 1411
380 1412
380 1413
381 1414
381 1415
382 1412
382 1414
382 1415
382 1416
383 1414
383 1415
383 1416
383 1418
384 1415
384 1416
384 1417
384 1418
385 1416
385 1417
385 1418
385 1419
385 1420
387 1419
387 1420
387 1421
388 1423
389 1421
389 1423
390 1422
390 1424
391 1422
391 1424
391 1425
391 1426
392 1424
392 1428
393 1424
393 1426
393 1428
394 1425
394 1427
394 1428
395 1428
396 1427
396 1428
397 1428
397 1429
399 1430
400 1429
400 1430
401 1429
401 1430
401 1431
401 1433
402 1429
402 1430
402 1431
402 1432
402 1433
402 1434
403 1432
403 1433
403 1434
403 1435
403 1436
404 1434
404 1435
404 1436
404 1438
405 1435
405 1436
405 1438
405 1439
405 1440
406 1444
406 1445
406 1447
406 1448
406 1449
407 1448
407 1450
408 1447
408 1448
408 1450
408 1451
409 1449
409 1450
409 1451
410 1451
410 1452
411 1451
411 1452
411 1453
412 1451
412 1453
412 1454
413 1453
414 1453
414 1454
414 1455
415 1455
416 1454
417 1455
417 1456
418 1455
418 1456
419 1455
419 1456
420 1455
420 1456
420 1459
421 1456
421 1457
421 1458
421 1460
422 1458
422 1459
422 1460
422 1461
422 1462
422 1463
424 1461
424 1462
424 1463
424 1465
425 1462
425 1464
425 1465
425 1466
426 1465
426 1466
426 1467
427 1465
427 1466
427 1468
428 1466
428 1467
428 1468
429 1469
430 1469
431 1468
431 1470
431 1471
432 1468
432 1469
432 1470
433 1470
433 1472
434 1471
434 1472
435 1470
435 1471
435 1472
436 1472
436 1473
437 1472
438 1472
438 1474
439 1472
439 1473
439 1474
440 1473
440 1474
441 1473
441 1474
442 1474
443 1476
444 1474
444 1475
444 1476
445 1476
446 1475
446 1476
446 1477
447 1477
447 1478
447 1479
448 1478
448 1479
449 1477
449 1480
450 1478
450 1481
451 1479
451 1480
452 1479
452 1481
453 1480
453 1481
453 1483
453 1484
454 1480
454 1481
454 1483
454 1484
456 1483
456 1484
456 1485
456 1486
457 1483
457 1484
457 1485
457 1486
458 1486
458 1487
459 1485
459 1486
459 1488
460 1486
460 1487
460 1488
460 1489
461 1488
461 1489
462 1488
463 1488
463 1489
463 1490
463 1491
464 1490
464 1492
465 1490
465 1491
465 1493
465 1494
465 1496
466 1494
466 1495
466 1496
466 1497
466 1498
467 1496
467 1498
467 1499
467 1500
468 1498
468 1500
468 1501
469 1499
469 1500
469 1501
470 1501
471 1501
472 1501
472 1502
473 1502
473 1503
474 1502
475 1502
475 1503
476 1502
476 1503
476 1504
477 1502
478 1503
478 1504
478 1505
479 1504
479 1506
480 1505
480 1506
481 1505
481 1508
482 1505
482 1506
482 1508
482 1509
482 1510
483 1508
483 1510
483 1511
483 1512
483 1513
484 1510
484 1511
484 1512
484 1513
484 1514
484 1515
485 1513
485 1514
485 1515
485 1516
485 1517
487 1516
488 1516
488 1517
488 1518
489 1517
489 1518
490 1519
490 1520
491 1521
491 1522
491 1523
491 1524
491 1525
491 1526
492 1525
492 1526
492 1527
493 1525
493 1526
493 1527
494 1528
495 1527
495 1530
496 1527
496 1528
496 1530
497 1530
497 1532
497 1534
498 1532
498 1533
498 1534
498 1535
498 1536
498 1537
499 1535
499 1536
499 1538
499 1539
499 1540
500 1538
500 1540
500 1541
501 1543
501 1544
502 1541
502 1542
502 1543
502 1544
503 1543
503 1544
504 1545
504 1547
504 1548
505 1545
505 1546
505 1547
505 1548
505 1549
506 1548
506 1549
506 1550
507 1548
507 1549
507 1550
508 1550
508 1551
509 1549
509 1550
510 1550
510 1551
510 1552
510 1553
511 1551
511 1552
511 1553
511 1554
512 1552
512 1554
513 1554
513 1555
513 1556
514 1555
514 1556
515 1555
516 1557
516 1558
517 1556
517 1557
517 1559
518 1557
518 1558
519 1558
519 1559
519 1561
519 1562
520 1559
520 1560
520 1562
520 1563
521 1562
521 1563
522 1562
522 1563
522 1564
522 1565
523 1562
523 1563
523 1564
523 1566
524 1564
524 1565
524 1567
525 1564
525 1566
525 1567
526 1566
526 1567
526 1568
526 1569
527 1567
527 1570
528 1567
528 1568
528 1569
528 1570
529 1570
529 1571
530 1570
530 1571
531 1569
531 1570
531 1571
531 1572
532 1571
532 1572
533 1571
533 1572
534 1571
534 1572
534 1573
534 1574
535 1572
536 1573
536 1574
536 1575
537 1573
537 1574
538 1574
538 1575
538 1576
539 1575
539 1576
539 1577
540 1575
540 1577
541 1578
542 1577
542 1578
542 1579
543 1580
544 1578
544 1579
544 1581
545 1579
545 1580
545 1582
546 1579
546 1581
546 1583
546 1584
547 1581
547 1582
548 1584
548 1585
548 1586
548 1587
549 1587
549 1588
550 1586
550 1587
550 1588
551 1587
551 1588
551 1589
553 1588
553 1589
554 1588
554 1589
555 1589
556 1589
556 1590
556 1592
557 1589
557 1590
557 1591
558 1590
558 1591
558 1592
558 1593
558 1594
558 1595
559 1594
559 1595
560 1593
560 1594
560 1596
560 1597
561 1596
561 1597
562 1596
562 1597
562 1598
563 1596
563 1597
563 1598
564 1598
564 1599
566 1599
566 1600
567 1598
567 1600
567 1601
567 1602
568 1600
568 1602
568 1603
568 1604
568 1605
569 1605
569 1606
570 1606
570 1608
570 1609
570 1610
571 1607
571 1610
572 1608
572 1612
572 1613
573 1610
573 1612
575 1613
576 1613
576 1614
577 1615
579 1614
579 1616
580 1614
580 1615
580 1617
580 1618
580 1619
581 1616
581 1617
581 1620
582 1618
582 1620
583 1619
583 1620
583 1621
583 1622
584 1621
584 1622
584 1623
584 1625
585 1623
585 1626
586 1623
586 1624
586 1625
586 1626
586 1627
587 1628
588 1626
588 1627
589 1627
589 1629
590 1628
590 1629
590 1630
590 1631
591 1629
591 1630
591 1631
591 1632
592 1630
592 1632
593 1631
593 1633
594 1631
594 1632
594 1633
594 1634
595 1632
595 1633
595 1634
595 1635
596 1634
596 1636
597 1633
597 1634
597 1635
597 1637
598 1635
598 1636
598 1637
598 1638
599 1637
599 1638
599 1640
599 1641
599 1642
600 1639
600 1640
600 1642
601 1642
601 1643
602 1641
602 1642
603 1642
603 1643
604 1643
605 1643
605 1644
605 1645
606 1643
606 1646
607 1646
608 1644
608 1645
608 1646
608 1648
609 1646
609 1647
609 1648
609 1650
610 1646
610 1649
610 1650
610 1651
611 1651
612 1652
612 1653
612 1654
613 1652
613 1653
613 1654
613 1655
613 1656
614 1654
614 1657
614 1658
615 1655
615 1657
616 1659
616 1661
616 1662
616 1665
617 1662
617 1665
617 1666
618 1664
618 1665
618 1666
618 1667
619 1667
620 1666
621 1667
621 1668
622 1667
622 1668
623 1667
624 1668
625 1668
626 1668
627 1668
628 1668
630 1669
631 1669
632 1669
632 1670
633 1669
633 1670
633 1671
634 1669
634 1672
635 1670
635 1672
635 1673
635 1674
636 1670
636 1671
636 1674
637 1673
637 1674
638 1673
638 1674
638 1675
638 1676
639 1674
639 1675
639 1676
639 1677
639 1678
640 1675
640 1677
640 1678
641 1679
641 1680
642 1677
642 1678
642 1680
643 1679
643 1681
644 1679
645 1680
645 1681
645 1682
645 1683
646 1681
646 1682
646 1683
646 1684
646 1686
647 1684
647 1687
648 1685
648 1686
649 1686
649 1687
651 1688
652 1688
653 1688
653 1689
655 1689
655 1690
656 1688
656 1689
656 1691
657 1689
657 1690
657 1691
657 1693
658 1690
658 1691
658 1692
658 1694
659 1692
659 1694
660 1692
660 1694
660 1695
660 1696
661 1695
661 1696
662 1695
662 1696
663 1695
663 1696
663 1697
663 1698
663 1699
664 1698
664 1701
664 1702
664 1703
665 1701
666 1702
667 1703
667 1704
668 1703
669 1704
670 1704
670 1705
671 1704
671 1705
671 1706
672 1704
672 1706
672 1707
672 1708
673 1706
673 1707
673 1708
674 1707
674 1708
674 1709
674 1710
675 1707
675 1709
676 1708
676 1710
677 1709
677 1710
677 1711
678 1709
678 1710
678 1712
679 1711
679 1712
679 1713
680 1711
680 1713
681 1712
681 1713
681 1714
681 1716
682 1712
682 1713
682 1714
682 1716
683 1716
684 1716
685 1716
686 1716
688 1717
689 1717
691 1717
692 1717
693 1717
693 1718
694 1717
695 1717
695 1718
695 1719
696 1718
696 1719
697 1718
697 1719
697 1720
697 1721
697 1722
698 1720
698 1723
699 1720
699 1721
699 1722
699 1723
699 1724
699 1725
700 1723
700 1724
700 1725
700 1726
700 1727
700 1728
701 1726
701 1727
701 1729
701 1730
702 1726
702 1730
702 1732
703 1731
704 1731
704 1734
705 1732
705 1733
706 1734
706 1735
707 1735
708 1734
708 1735
709 1735
709 1736
709 1737
710 1734
710 1737
711 1735
711 1736
712 1736
713 1737
713 1739
714 1736
714 1737
714 1738
715 1738
715 1739
716 1738
716 1739
716 1740
717 1738
717 1741
717 1742
718 1743
719 1740
719 1741
719 1744
720 1742
720 1744
720 1745
721 1743
721 1744
721 1745
722 1745
722 1747
723 1746
723 1747
724 1745
724 1746
724 1747
724 1748
725 1747
725 1748
725 1749
726 1748
726 1750
726 1751
727 1748
727 1749
727 1751
727 1752
728 1751
728 1752
728 1753
728 1754
729 1753
729 1754
729 1755
730 1753
730 1754
731 1755
732 1756
733 1755
733 1756
733 1757
733 1758
734 1756
734 1757
735 1756
735 1757
735 1759
736 1757
736 1758
736 1759
736 1760
736 1761
737 1759
737 1762
737 1763
738 1760
738 1762
738 1763
739 1762
739 1764
740 1764
740 1765
740 1766
741 1764
741 1765
741 1766
742 1765
742 1766
742 1769
743 1766
743 1767
743 1770
743 1771
744 1770
744 1771
744 1772
744 1773
744 1774
745 1772
745 1773
745 1775
745 1777
746 1772
746 1774
746 1775
746 1776
747 1775
747 1776
747 1777
747 1778
748 1778
748 1779
748 1780
749 1779
749 1780
750 1778
750 1780
750 1781
751 1780
751 1781
751 1782
752 1780
752 1781
752 1782
752 1783
752 1784
753 1782
753 1783
753 1784
754 1783
754 1785
754 1786
755 1783
755 1785
756 1784
756 1785
756 1786
756 1788
757 1785
757 1786
757 1788
758 1786
759 1788
759 1789
760 1788
760 1789
761 1788
761 1789
762 1789
762 1790
762 1792
763 1789
763 1790
763 1791
764 1790
764 1792
764 1793
764 1795
765 1791
765 1792
765 1793
765 1794
765 1795
765 1796
766 1794
766 1795
766 1796
766 1797
767 1797
768 1796
768 1797
770 1797
770 1798
770 1799
771 1798
771 1799
772 1799
772 1800
772 1801
772 1802
772 1803
772 1804
772 1805
773 1804
773 1805
773 1806
773 1807
774 1803
774 1805
774 1807
775 1807
775 1809
776 1806
776 1807
776 1808
776 1809
777 1806
777 1808
778 1808
778 1810
778 1811
778 1812
779 1810
779 1811
779 1813
779 1814
780 1812
780 1813
780 1814
780 1815
780 1816
781 1815
782 1814
782 1816
782 1817
782 1818
783 1820
783 1821
783 1823
783 1825
783 1826
784 1823
784 1825
784 1826
784 1827
785 1825
785 1828
785 1830
786 1826
786 1827
786 1828
786 1829
786 1830
787 1829
787 1830
788 1830
788 1831
788 1832
789 1831
789 1832
789 1833
789 1834
790 1832
790 1833
790 1834
791 1833
791 1834
791 1835
791 1836
793 1836
793 1837
794 1836
794 1838
795 1837
796 1840
797 1840
797 1841
798 1840
798 1842
799 1839
799 1840
799 1842
800 1842
801 1841
801 1843
802 1842
802 1843
802 1844
803 1846
804 1842
804 1843
804 1845
804 1846
805 1845
805 1846
805 1849
806 1846
806 1850
807 1848
808 1849
808 1850
809 1849
809 1850
809 1851
810 1850
810 1852
811 1850
811 1851
811 1852
811 1853
812 1851
812 1852
812 1854
812 1855
812 1856
813 1856
813 1858
813 1859
813 1860
813 1861
814 1859
814 1860
814 1861
815 1863
816 1860
816 1861
816 1862
816 1863
817 1862
817 1863
817 1864
817 1865
817 1866
818 1863
818 1864
818 1866
818 1867
819 1865
819 1866
819 1867
819 1869
820 1866
820 1868
820 1869
821 1868
821 1869
821 1870
822 1869
822 1870
822 1871
822 1872
823 1870
823 1872
823 1873
824 1871
824 1872
824 1873
824 1875
824 1877
825 1875
825 1876
825 1877
825 1878
825 1879
826 1877
826 1878
826 1879
826 1880
828 1878
828 1879
828 1880
828 1882
829 1879
829 1880
829 1881
829 1882
830 1880
830 1881
830 1883
830 1884
831 1883
831 1884
832 1882
832 1884
833 1883
833 1884
833 1886
834 1884
834 1885
834 1887
835 1884
835 1885
835 1887
835 1888
836 1886
836 1887
836 1888
836 1889
836 1890
836 1891
837 1889
837 1890
838 1889
838 1890
838 1891
838 1893
839 1890
839 1892
839 1893
839 1894
840 1892
840 1893
840 1895
840 1896
841 1893
841 1894
841 1895
841 1897
842 1895
842 1896
842 1897
843 1898
844 1896
844 1898
845 1898
846 1898
847 1898
847 1899
847 1900
848 1900
849 1901
850 1901
851 1901
851 1902
851 1903
852 1902
852 1903
853 1902
853 1903
854 1903
854 1904
855 1902
855 1903
855 1905
855 1906
855 1907
856 1904
856 1905
856 1906
856 1908
857 1907
857 1909
858 1908
858 1909
858 1910
858 1911
859 1909
859 1910
859 1911
859 1913
860 1913
861 1912
861 1914
862 1913
862 1917
863 1915
863 1917
863 1918
864 1916
864 1917
864 1918
864 1919
865 1918
865 1919
865 1920
866 1919
866 1920
866 1921
867 1919
867 1921
868 1922
869 1920
869 1921
869 1923
870 1921
870 1922
870 1923
870 1925
871 1922
871 1923
871 1924
871 1925
871 1926
872 1926
872 1927
873 1924
873 1925
873 1927
873 1928
874 1926
874 1927
874 1928
874 1929
874 1930
875 1928
875 1929
876 1928
876 1930
876 1931
877 1929
877 1931
877 1932
878 1929
878 1932
879 1931
879 1932
879 1934
880 1931
880 1932
880 1933
880 1934
882 1933
882 1936
883 1933
883 1934
883 1935
884 1934
884 1935
884 1936
885 1935
885 1936
885 1938
885 1939
886 1937
886 1938
886 1939
886 1940
886 1943
887 1943
887 1945
888 1941
888 1942
888 1944
889 1943
889 1945
890 1944
890 1945
891 1944
891 1946
891 1947
892 1945
892 1947
893 1946
893 1947
894 1946
894 1948
895 1947
895 1948
895 1950
896 1947
896 1948
896 1949
896 1950
896 1951
897 1949
897 1951
897 1952
898 1950
898 1952
898 1953
898 1954
899 1951
899 1954
900 1952
901 1953
901 1954
901 1955
902 1953
902 1955
902 1956
903 1954
903 1957
904 1956
904 1957
904 1959
904 1960
905 1958
905 1960
905 1962
906 1960
906 1961
906 1962
906 1964
906 1965
907 1964
908 1966
909 1965
910 1966
911 1967
911 1968
912 1967
913 1968
914 1967
914 1968
914 1971
915 1969
915 1971
916 1969
917 1971
917 1973
918 1971
918 1972
919 1971
919 1972
919 1973
919 1974
919 1975
920 1972
920 1974
920 1975
921 1974
921 1976
921 1977
922 1976
922 1977
922 1978
922 1979
923 1977
923 1978
923 1980
923 1981
924 1978
924 1979
925 1981
926 1980
926 1982
927 1981
927 1982
928 1981
928 1982
929 1982
930 1982
931 1982
932 1983
934 1983
935 1984
935 1985
936 1984
936 1986
937 1984
937 1985
937 1986
937 1987
937 1988
937 1989
937 1990
937 1991
938 1989
938 1990
938 1991
938 1992
938 1993
938 1994
939 1996
939 1998
939 2000
940 1999
940 2002
941 1999
941 2000
941 2001
941 2002
942 2000
942 2002
943 2001
943 2002
943 2003
943 2004
943 2005
944 2004
945 2004
945 2006
946 2004
946 2005
946 2006
947 2005
947 2006
948 2006
949 2006
949 2007
951 2006
951 2007
951 2008
952 2010
953 2009
953 2011
954 2009
954 2010
954 2011
954 2012
955 2010
955 2012
956 2011
956 2012
956 2013
956 2014
956 2015
956 2016
956 2017
957 2021
957 2022
957 2025
958 2023
958 2027
959 2024
959 2025
959 2027
959 2028
959 2029
960 2028
960 2029
960 2030
961 2028
961 2029
961 2030
962 2030
962 2031
962 2032
962 2033
963 2030
963 2031
963 2032
963 2033
963 2034
963 2035
964 2034
964 2035
964 2037
965 2037
966 2034
966 2035
966 2036
966 2037
967 2038
967 2041
967 2042
967 2043
968 2040
968 2041
968 2043
969 2042
969 2043
969 2044
970 2043
970 2044
971 2043
971 2044
972 2044
972 2045
973 2044
973 2045
974 2044
974 2047
975 2044
975 2046
976 2045
976 2046
976 2047
976 2048
976 2049
976 2050
977 2047
977 2048
977 2050
977 2051
978 2049
978 2051
979 2050
979 2051
980 2050
980 2051
980 2052
981 2051
981 2052
982 2051
982 2052
982 2053
982 2055
983 2053
983 2055
984 2060
984 2063
984 2064
985 2061
985 2063
985 2064
985 2065
986 2065
986 2066
987 2064
987 2066
989 2065
989 2066
989 2067
990 2065
991 2066
991 2068
992 2068
992 2069
993 2067
993 2071
994 2068
994 2069
994 2070
995 2069
995 2070
995 2071
995 2072
996 2070
996 2072
996 2073
996 2074
997 2072
997 2073
998 2072
998 2073
999 2073
999 2074
999 2077
1000 2074
1000 2075
1000 2077
1000 2078
1001 2079
1001 2080
1001 2081
1001 2082
1002 2079
1002 2080
1002 2083
1003 2082
1003 2083
1003 2085
1003 2086
1004 2085
1004 2086
1005 2084
1005 2086
1006 2085
1006 2087
1007 2087
1007 2088
1008 2086
1008 2087
1008 2089
1009 2087
1009 2088
1009 2089
1010 2088
1010 2089
1011 2089
1011 2090
1012 2088
1012 2090
1014 2090
1014 2092
1015 2090
1015 2091
1015 2092
1016 2090
1016 2091
1016 2092
1016 2093
1016 2095
1017 2092
1017 2093
1017 2094
1018 2093
1018 2095
1018 2096
1018 2098
1019 2096
1019 2097
1019 2098
1019 2099
1020 2099
1022 2098
1022 2099
1022 2101
1023 2099
1023 2100
1023 2101
1023 2103
1023 2104
1024 2100
1024 2102
1024 2103
1024 2104
1025 2103
1025 2104
1026 2104
1026 2107
1027 2104
1027 2105
1027 2106
1027 2108
1028 2106
1028 2107
1028 2109
1029 2107
1029 2108
1031 2109
1032 2109